p cnf 224 1666
1 0
90 0
11 0
212 0
133 0
142 0
-1 -169 0
-2 -170 0
-3 -171 0
-4 -172 0
-5 -173 0
-6 -174 0
-7 -175 0
-8 -176 0
-1 -89 0
-2 -90 0
-3 -91 0
-4 -92 0
-5 -93 0
-6 -94 0
-7 -95 0
-8 -96 0
-1 -81 0
-2 -82 0
-3 -83 0
-4 -84 0
-5 -85 0
-6 -86 0
-7 -87 0
-8 -88 0
-1 -185 0
-2 -186 0
-3 -187 0
-4 -188 0
-5 -189 0
-6 -190 0
-7 -191 0
-8 -192 0
-1 -49 0
-2 -50 0
-3 -51 0
-4 -52 0
-5 -53 0
-6 -54 0
-7 -55 0
-8 -56 0
-1 -97 0
-2 -98 0
-3 -99 0
-4 -100 0
-5 -101 0
-6 -102 0
-7 -103 0
-8 -104 0
-1 -41 0
-2 -42 0
-3 -43 0
-4 -44 0
-5 -45 0
-6 -46 0
-7 -47 0
-8 -48 0
-1 -137 0
-2 -138 0
-3 -139 0
-4 -140 0
-5 -141 0
-6 -142 0
-7 -143 0
-8 -144 0
-1 -9 0
-2 -10 0
-3 -11 0
-4 -12 0
-5 -13 0
-6 -14 0
-7 -15 0
-8 -16 0
-1 -25 0
-2 -26 0
-3 -27 0
-4 -28 0
-5 -29 0
-6 -30 0
-7 -31 0
-8 -32 0
-1 -129 0
-2 -130 0
-3 -131 0
-4 -132 0
-5 -133 0
-6 -134 0
-7 -135 0
-8 -136 0
-1 -209 0
-2 -210 0
-3 -211 0
-4 -212 0
-5 -213 0
-6 -214 0
-7 -215 0
-8 -216 0
-1 -65 0
-2 -66 0
-3 -67 0
-4 -68 0
-5 -69 0
-6 -70 0
-7 -71 0
-8 -72 0
-1 -57 0
-2 -58 0
-3 -59 0
-4 -60 0
-5 -61 0
-6 -62 0
-7 -63 0
-8 -64 0
-9 -201 0
-10 -202 0
-11 -203 0
-12 -204 0
-13 -205 0
-14 -206 0
-15 -207 0
-16 -208 0
-9 -169 0
-10 -170 0
-11 -171 0
-12 -172 0
-13 -173 0
-14 -174 0
-15 -175 0
-16 -176 0
-9 -89 0
-10 -90 0
-11 -91 0
-12 -92 0
-13 -93 0
-14 -94 0
-15 -95 0
-16 -96 0
-9 -49 0
-10 -50 0
-11 -51 0
-12 -52 0
-13 -53 0
-14 -54 0
-15 -55 0
-16 -56 0
-9 -97 0
-10 -98 0
-11 -99 0
-12 -100 0
-13 -101 0
-14 -102 0
-15 -103 0
-16 -104 0
-9 -41 0
-10 -42 0
-11 -43 0
-12 -44 0
-13 -45 0
-14 -46 0
-15 -47 0
-16 -48 0
-9 -137 0
-10 -138 0
-11 -139 0
-12 -140 0
-13 -141 0
-14 -142 0
-15 -143 0
-16 -144 0
-9 -25 0
-10 -26 0
-11 -27 0
-12 -28 0
-13 -29 0
-14 -30 0
-15 -31 0
-16 -32 0
-9 -129 0
-10 -130 0
-11 -131 0
-12 -132 0
-13 -133 0
-14 -134 0
-15 -135 0
-16 -136 0
-9 -73 0
-10 -74 0
-11 -75 0
-12 -76 0
-13 -77 0
-14 -78 0
-15 -79 0
-16 -80 0
-9 -105 0
-10 -106 0
-11 -107 0
-12 -108 0
-13 -109 0
-14 -110 0
-15 -111 0
-16 -112 0
-9 -209 0
-10 -210 0
-11 -211 0
-12 -212 0
-13 -213 0
-14 -214 0
-15 -215 0
-16 -216 0
-9 -57 0
-10 -58 0
-11 -59 0
-12 -60 0
-13 -61 0
-14 -62 0
-15 -63 0
-16 -64 0
-17 -201 0
-18 -202 0
-19 -203 0
-20 -204 0
-21 -205 0
-22 -206 0
-23 -207 0
-24 -208 0
-17 -169 0
-18 -170 0
-19 -171 0
-20 -172 0
-21 -173 0
-22 -174 0
-23 -175 0
-24 -176 0
-17 -33 0
-18 -34 0
-19 -35 0
-20 -36 0
-21 -37 0
-22 -38 0
-23 -39 0
-24 -40 0
-17 -81 0
-18 -82 0
-19 -83 0
-20 -84 0
-21 -85 0
-22 -86 0
-23 -87 0
-24 -88 0
-17 -185 0
-18 -186 0
-19 -187 0
-20 -188 0
-21 -189 0
-22 -190 0
-23 -191 0
-24 -192 0
-17 -49 0
-18 -50 0
-19 -51 0
-20 -52 0
-21 -53 0
-22 -54 0
-23 -55 0
-24 -56 0
-17 -217 0
-18 -218 0
-19 -219 0
-20 -220 0
-21 -221 0
-22 -222 0
-23 -223 0
-24 -224 0
-17 -193 0
-18 -194 0
-19 -195 0
-20 -196 0
-21 -197 0
-22 -198 0
-23 -199 0
-24 -200 0
-17 -161 0
-18 -162 0
-19 -163 0
-20 -164 0
-21 -165 0
-22 -166 0
-23 -167 0
-24 -168 0
-17 -153 0
-18 -154 0
-19 -155 0
-20 -156 0
-21 -157 0
-22 -158 0
-23 -159 0
-24 -160 0
-17 -113 0
-18 -114 0
-19 -115 0
-20 -116 0
-21 -117 0
-22 -118 0
-23 -119 0
-24 -120 0
-17 -121 0
-18 -122 0
-19 -123 0
-20 -124 0
-21 -125 0
-22 -126 0
-23 -127 0
-24 -128 0
-17 -145 0
-18 -146 0
-19 -147 0
-20 -148 0
-21 -149 0
-22 -150 0
-23 -151 0
-24 -152 0
-17 -65 0
-18 -66 0
-19 -67 0
-20 -68 0
-21 -69 0
-22 -70 0
-23 -71 0
-24 -72 0
-17 -57 0
-18 -58 0
-19 -59 0
-20 -60 0
-21 -61 0
-22 -62 0
-23 -63 0
-24 -64 0
-25 -81 0
-26 -82 0
-27 -83 0
-28 -84 0
-29 -85 0
-30 -86 0
-31 -87 0
-32 -88 0
-25 -49 0
-26 -50 0
-27 -51 0
-28 -52 0
-29 -53 0
-30 -54 0
-31 -55 0
-32 -56 0
-25 -217 0
-26 -218 0
-27 -219 0
-28 -220 0
-29 -221 0
-30 -222 0
-31 -223 0
-32 -224 0
-25 -41 0
-26 -42 0
-27 -43 0
-28 -44 0
-29 -45 0
-30 -46 0
-31 -47 0
-32 -48 0
-25 -137 0
-26 -138 0
-27 -139 0
-28 -140 0
-29 -141 0
-30 -142 0
-31 -143 0
-32 -144 0
-25 -209 0
-26 -210 0
-27 -211 0
-28 -212 0
-29 -213 0
-30 -214 0
-31 -215 0
-32 -216 0
-25 -65 0
-26 -66 0
-27 -67 0
-28 -68 0
-29 -69 0
-30 -70 0
-31 -71 0
-32 -72 0
-25 -145 0
-26 -146 0
-27 -147 0
-28 -148 0
-29 -149 0
-30 -150 0
-31 -151 0
-32 -152 0
-25 -177 0
-26 -178 0
-27 -179 0
-28 -180 0
-29 -181 0
-30 -182 0
-31 -183 0
-32 -184 0
-25 -129 0
-26 -130 0
-27 -131 0
-28 -132 0
-29 -133 0
-30 -134 0
-31 -135 0
-32 -136 0
-25 -105 0
-26 -106 0
-27 -107 0
-28 -108 0
-29 -109 0
-30 -110 0
-31 -111 0
-32 -112 0
-25 -153 0
-26 -154 0
-27 -155 0
-28 -156 0
-29 -157 0
-30 -158 0
-31 -159 0
-32 -160 0
-25 -121 0
-26 -122 0
-27 -123 0
-28 -124 0
-29 -125 0
-30 -126 0
-31 -127 0
-32 -128 0
-33 -201 0
-34 -202 0
-35 -203 0
-36 -204 0
-37 -205 0
-38 -206 0
-39 -207 0
-40 -208 0
-33 -169 0
-34 -170 0
-35 -171 0
-36 -172 0
-37 -173 0
-38 -174 0
-39 -175 0
-40 -176 0
-33 -193 0
-34 -194 0
-35 -195 0
-36 -196 0
-37 -197 0
-38 -198 0
-39 -199 0
-40 -200 0
-33 -161 0
-34 -162 0
-35 -163 0
-36 -164 0
-37 -165 0
-38 -166 0
-39 -167 0
-40 -168 0
-33 -113 0
-34 -114 0
-35 -115 0
-36 -116 0
-37 -117 0
-38 -118 0
-39 -119 0
-40 -120 0
-33 -89 0
-34 -90 0
-35 -91 0
-36 -92 0
-37 -93 0
-38 -94 0
-39 -95 0
-40 -96 0
-33 -185 0
-34 -186 0
-35 -187 0
-36 -188 0
-37 -189 0
-38 -190 0
-39 -191 0
-40 -192 0
-33 -217 0
-34 -218 0
-35 -219 0
-36 -220 0
-37 -221 0
-38 -222 0
-39 -223 0
-40 -224 0
-33 -97 0
-34 -98 0
-35 -99 0
-36 -100 0
-37 -101 0
-38 -102 0
-39 -103 0
-40 -104 0
-33 -73 0
-34 -74 0
-35 -75 0
-36 -76 0
-37 -77 0
-38 -78 0
-39 -79 0
-40 -80 0
-33 -105 0
-34 -106 0
-35 -107 0
-36 -108 0
-37 -109 0
-38 -110 0
-39 -111 0
-40 -112 0
-33 -153 0
-34 -154 0
-35 -155 0
-36 -156 0
-37 -157 0
-38 -158 0
-39 -159 0
-40 -160 0
-33 -121 0
-34 -122 0
-35 -123 0
-36 -124 0
-37 -125 0
-38 -126 0
-39 -127 0
-40 -128 0
-33 -57 0
-34 -58 0
-35 -59 0
-36 -60 0
-37 -61 0
-38 -62 0
-39 -63 0
-40 -64 0
-41 -81 0
-42 -82 0
-43 -83 0
-44 -84 0
-45 -85 0
-46 -86 0
-47 -87 0
-48 -88 0
-41 -185 0
-42 -186 0
-43 -187 0
-44 -188 0
-45 -189 0
-46 -190 0
-47 -191 0
-48 -192 0
-41 -49 0
-42 -50 0
-43 -51 0
-44 -52 0
-45 -53 0
-46 -54 0
-47 -55 0
-48 -56 0
-41 -217 0
-42 -218 0
-43 -219 0
-44 -220 0
-45 -221 0
-46 -222 0
-47 -223 0
-48 -224 0
-41 -97 0
-42 -98 0
-43 -99 0
-44 -100 0
-45 -101 0
-46 -102 0
-47 -103 0
-48 -104 0
-41 -137 0
-42 -138 0
-43 -139 0
-44 -140 0
-45 -141 0
-46 -142 0
-47 -143 0
-48 -144 0
-41 -65 0
-42 -66 0
-43 -67 0
-44 -68 0
-45 -69 0
-46 -70 0
-47 -71 0
-48 -72 0
-41 -129 0
-42 -130 0
-43 -131 0
-44 -132 0
-45 -133 0
-46 -134 0
-47 -135 0
-48 -136 0
-41 -209 0
-42 -210 0
-43 -211 0
-44 -212 0
-45 -213 0
-46 -214 0
-47 -215 0
-48 -216 0
-41 -145 0
-42 -146 0
-43 -147 0
-44 -148 0
-45 -149 0
-46 -150 0
-47 -151 0
-48 -152 0
-41 -177 0
-42 -178 0
-43 -179 0
-44 -180 0
-45 -181 0
-46 -182 0
-47 -183 0
-48 -184 0
-41 -57 0
-42 -58 0
-43 -59 0
-44 -60 0
-45 -61 0
-46 -62 0
-47 -63 0
-48 -64 0
-49 -169 0
-50 -170 0
-51 -171 0
-52 -172 0
-53 -173 0
-54 -174 0
-55 -175 0
-56 -176 0
-49 -89 0
-50 -90 0
-51 -91 0
-52 -92 0
-53 -93 0
-54 -94 0
-55 -95 0
-56 -96 0
-49 -81 0
-50 -82 0
-51 -83 0
-52 -84 0
-53 -85 0
-54 -86 0
-55 -87 0
-56 -88 0
-49 -185 0
-50 -186 0
-51 -187 0
-52 -188 0
-53 -189 0
-54 -190 0
-55 -191 0
-56 -192 0
-49 -97 0
-50 -98 0
-51 -99 0
-52 -100 0
-53 -101 0
-54 -102 0
-55 -103 0
-56 -104 0
-49 -57 0
-50 -58 0
-51 -59 0
-52 -60 0
-53 -61 0
-54 -62 0
-55 -63 0
-56 -64 0
-49 -217 0
-50 -218 0
-51 -219 0
-52 -220 0
-53 -221 0
-54 -222 0
-55 -223 0
-56 -224 0
-49 -137 0
-50 -138 0
-51 -139 0
-52 -140 0
-53 -141 0
-54 -142 0
-55 -143 0
-56 -144 0
-49 -193 0
-50 -194 0
-51 -195 0
-52 -196 0
-53 -197 0
-54 -198 0
-55 -199 0
-56 -200 0
-49 -65 0
-50 -66 0
-51 -67 0
-52 -68 0
-53 -69 0
-54 -70 0
-55 -71 0
-56 -72 0
-57 -201 0
-58 -202 0
-59 -203 0
-60 -204 0
-61 -205 0
-62 -206 0
-63 -207 0
-64 -208 0
-57 -169 0
-58 -170 0
-59 -171 0
-60 -172 0
-61 -173 0
-62 -174 0
-63 -175 0
-64 -176 0
-57 -89 0
-58 -90 0
-59 -91 0
-60 -92 0
-61 -93 0
-62 -94 0
-63 -95 0
-64 -96 0
-57 -81 0
-58 -82 0
-59 -83 0
-60 -84 0
-61 -85 0
-62 -86 0
-63 -87 0
-64 -88 0
-57 -185 0
-58 -186 0
-59 -187 0
-60 -188 0
-61 -189 0
-62 -190 0
-63 -191 0
-64 -192 0
-57 -217 0
-58 -218 0
-59 -219 0
-60 -220 0
-61 -221 0
-62 -222 0
-63 -223 0
-64 -224 0
-57 -97 0
-58 -98 0
-59 -99 0
-60 -100 0
-61 -101 0
-62 -102 0
-63 -103 0
-64 -104 0
-57 -193 0
-58 -194 0
-59 -195 0
-60 -196 0
-61 -197 0
-62 -198 0
-63 -199 0
-64 -200 0
-65 -81 0
-66 -82 0
-67 -83 0
-68 -84 0
-69 -85 0
-70 -86 0
-71 -87 0
-72 -88 0
-65 -185 0
-66 -186 0
-67 -187 0
-68 -188 0
-69 -189 0
-70 -190 0
-71 -191 0
-72 -192 0
-65 -217 0
-66 -218 0
-67 -219 0
-68 -220 0
-69 -221 0
-70 -222 0
-71 -223 0
-72 -224 0
-65 -137 0
-66 -138 0
-67 -139 0
-68 -140 0
-69 -141 0
-70 -142 0
-71 -143 0
-72 -144 0
-65 -209 0
-66 -210 0
-67 -211 0
-68 -212 0
-69 -213 0
-70 -214 0
-71 -215 0
-72 -216 0
-65 -153 0
-66 -154 0
-67 -155 0
-68 -156 0
-69 -157 0
-70 -158 0
-71 -159 0
-72 -160 0
-65 -121 0
-66 -122 0
-67 -123 0
-68 -124 0
-69 -125 0
-70 -126 0
-71 -127 0
-72 -128 0
-65 -145 0
-66 -146 0
-67 -147 0
-68 -148 0
-69 -149 0
-70 -150 0
-71 -151 0
-72 -152 0
-65 -177 0
-66 -178 0
-67 -179 0
-68 -180 0
-69 -181 0
-70 -182 0
-71 -183 0
-72 -184 0
-73 -201 0
-74 -202 0
-75 -203 0
-76 -204 0
-77 -205 0
-78 -206 0
-79 -207 0
-80 -208 0
-73 -169 0
-74 -170 0
-75 -171 0
-76 -172 0
-77 -173 0
-78 -174 0
-79 -175 0
-80 -176 0
-73 -89 0
-74 -90 0
-75 -91 0
-76 -92 0
-77 -93 0
-78 -94 0
-79 -95 0
-80 -96 0
-73 -97 0
-74 -98 0
-75 -99 0
-76 -100 0
-77 -101 0
-78 -102 0
-79 -103 0
-80 -104 0
-73 -137 0
-74 -138 0
-75 -139 0
-76 -140 0
-77 -141 0
-78 -142 0
-79 -143 0
-80 -144 0
-73 -129 0
-74 -130 0
-75 -131 0
-76 -132 0
-77 -133 0
-78 -134 0
-79 -135 0
-80 -136 0
-73 -105 0
-74 -106 0
-75 -107 0
-76 -108 0
-77 -109 0
-78 -110 0
-79 -111 0
-80 -112 0
-73 -161 0
-74 -162 0
-75 -163 0
-76 -164 0
-77 -165 0
-78 -166 0
-79 -167 0
-80 -168 0
-73 -209 0
-74 -210 0
-75 -211 0
-76 -212 0
-77 -213 0
-78 -214 0
-79 -215 0
-80 -216 0
-73 -153 0
-74 -154 0
-75 -155 0
-76 -156 0
-77 -157 0
-78 -158 0
-79 -159 0
-80 -160 0
-73 -113 0
-74 -114 0
-75 -115 0
-76 -116 0
-77 -117 0
-78 -118 0
-79 -119 0
-80 -120 0
-73 -177 0
-74 -178 0
-75 -179 0
-76 -180 0
-77 -181 0
-78 -182 0
-79 -183 0
-80 -184 0
-81 -185 0
-82 -186 0
-83 -187 0
-84 -188 0
-85 -189 0
-86 -190 0
-87 -191 0
-88 -192 0
-81 -217 0
-82 -218 0
-83 -219 0
-84 -220 0
-85 -221 0
-86 -222 0
-87 -223 0
-88 -224 0
-81 -97 0
-82 -98 0
-83 -99 0
-84 -100 0
-85 -101 0
-86 -102 0
-87 -103 0
-88 -104 0
-81 -137 0
-82 -138 0
-83 -139 0
-84 -140 0
-85 -141 0
-86 -142 0
-87 -143 0
-88 -144 0
-81 -193 0
-82 -194 0
-83 -195 0
-84 -196 0
-85 -197 0
-86 -198 0
-87 -199 0
-88 -200 0
-81 -121 0
-82 -122 0
-83 -123 0
-84 -124 0
-85 -125 0
-86 -126 0
-87 -127 0
-88 -128 0
-81 -145 0
-82 -146 0
-83 -147 0
-84 -148 0
-85 -149 0
-86 -150 0
-87 -151 0
-88 -152 0
-89 -201 0
-90 -202 0
-91 -203 0
-92 -204 0
-93 -205 0
-94 -206 0
-95 -207 0
-96 -208 0
-89 -169 0
-90 -170 0
-91 -171 0
-92 -172 0
-93 -173 0
-94 -174 0
-95 -175 0
-96 -176 0
-89 -97 0
-90 -98 0
-91 -99 0
-92 -100 0
-93 -101 0
-94 -102 0
-95 -103 0
-96 -104 0
-89 -129 0
-90 -130 0
-91 -131 0
-92 -132 0
-93 -133 0
-94 -134 0
-95 -135 0
-96 -136 0
-89 -137 0
-90 -138 0
-91 -139 0
-92 -140 0
-93 -141 0
-94 -142 0
-95 -143 0
-96 -144 0
-89 -105 0
-90 -106 0
-91 -107 0
-92 -108 0
-93 -109 0
-94 -110 0
-95 -111 0
-96 -112 0
-89 -209 0
-90 -210 0
-91 -211 0
-92 -212 0
-93 -213 0
-94 -214 0
-95 -215 0
-96 -216 0
-89 -193 0
-90 -194 0
-91 -195 0
-92 -196 0
-93 -197 0
-94 -198 0
-95 -199 0
-96 -200 0
-89 -161 0
-90 -162 0
-91 -163 0
-92 -164 0
-93 -165 0
-94 -166 0
-95 -167 0
-96 -168 0
-97 -201 0
-98 -202 0
-99 -203 0
-100 -204 0
-101 -205 0
-102 -206 0
-103 -207 0
-104 -208 0
-97 -169 0
-98 -170 0
-99 -171 0
-100 -172 0
-101 -173 0
-102 -174 0
-103 -175 0
-104 -176 0
-97 -185 0
-98 -186 0
-99 -187 0
-100 -188 0
-101 -189 0
-102 -190 0
-103 -191 0
-104 -192 0
-97 -137 0
-98 -138 0
-99 -139 0
-100 -140 0
-101 -141 0
-102 -142 0
-103 -143 0
-104 -144 0
-97 -129 0
-98 -130 0
-99 -131 0
-100 -132 0
-101 -133 0
-102 -134 0
-103 -135 0
-104 -136 0
-97 -193 0
-98 -194 0
-99 -195 0
-100 -196 0
-101 -197 0
-102 -198 0
-103 -199 0
-104 -200 0
-105 -201 0
-106 -202 0
-107 -203 0
-108 -204 0
-109 -205 0
-110 -206 0
-111 -207 0
-112 -208 0
-105 -137 0
-106 -138 0
-107 -139 0
-108 -140 0
-109 -141 0
-110 -142 0
-111 -143 0
-112 -144 0
-105 -129 0
-106 -130 0
-107 -131 0
-108 -132 0
-109 -133 0
-110 -134 0
-111 -135 0
-112 -136 0
-105 -209 0
-106 -210 0
-107 -211 0
-108 -212 0
-109 -213 0
-110 -214 0
-111 -215 0
-112 -216 0
-105 -153 0
-106 -154 0
-107 -155 0
-108 -156 0
-109 -157 0
-110 -158 0
-111 -159 0
-112 -160 0
-105 -161 0
-106 -162 0
-107 -163 0
-108 -164 0
-109 -165 0
-110 -166 0
-111 -167 0
-112 -168 0
-105 -177 0
-106 -178 0
-107 -179 0
-108 -180 0
-109 -181 0
-110 -182 0
-111 -183 0
-112 -184 0
-105 -113 0
-106 -114 0
-107 -115 0
-108 -116 0
-109 -117 0
-110 -118 0
-111 -119 0
-112 -120 0
-105 -121 0
-106 -122 0
-107 -123 0
-108 -124 0
-109 -125 0
-110 -126 0
-111 -127 0
-112 -128 0
-105 -145 0
-106 -146 0
-107 -147 0
-108 -148 0
-109 -149 0
-110 -150 0
-111 -151 0
-112 -152 0
-113 -201 0
-114 -202 0
-115 -203 0
-116 -204 0
-117 -205 0
-118 -206 0
-119 -207 0
-120 -208 0
-113 -169 0
-114 -170 0
-115 -171 0
-116 -172 0
-117 -173 0
-118 -174 0
-119 -175 0
-120 -176 0
-113 -185 0
-114 -186 0
-115 -187 0
-116 -188 0
-117 -189 0
-118 -190 0
-119 -191 0
-120 -192 0
-113 -217 0
-114 -218 0
-115 -219 0
-116 -220 0
-117 -221 0
-118 -222 0
-119 -223 0
-120 -224 0
-113 -193 0
-114 -194 0
-115 -195 0
-116 -196 0
-117 -197 0
-118 -198 0
-119 -199 0
-120 -200 0
-113 -161 0
-114 -162 0
-115 -163 0
-116 -164 0
-117 -165 0
-118 -166 0
-119 -167 0
-120 -168 0
-113 -153 0
-114 -154 0
-115 -155 0
-116 -156 0
-117 -157 0
-118 -158 0
-119 -159 0
-120 -160 0
-113 -121 0
-114 -122 0
-115 -123 0
-116 -124 0
-117 -125 0
-118 -126 0
-119 -127 0
-120 -128 0
-113 -145 0
-114 -146 0
-115 -147 0
-116 -148 0
-117 -149 0
-118 -150 0
-119 -151 0
-120 -152 0
-113 -177 0
-114 -178 0
-115 -179 0
-116 -180 0
-117 -181 0
-118 -182 0
-119 -183 0
-120 -184 0
-121 -185 0
-122 -186 0
-123 -187 0
-124 -188 0
-125 -189 0
-126 -190 0
-127 -191 0
-128 -192 0
-121 -217 0
-122 -218 0
-123 -219 0
-124 -220 0
-125 -221 0
-126 -222 0
-127 -223 0
-128 -224 0
-121 -193 0
-122 -194 0
-123 -195 0
-124 -196 0
-125 -197 0
-126 -198 0
-127 -199 0
-128 -200 0
-121 -161 0
-122 -162 0
-123 -163 0
-124 -164 0
-125 -165 0
-126 -166 0
-127 -167 0
-128 -168 0
-121 -153 0
-122 -154 0
-123 -155 0
-124 -156 0
-125 -157 0
-126 -158 0
-127 -159 0
-128 -160 0
-121 -145 0
-122 -146 0
-123 -147 0
-124 -148 0
-125 -149 0
-126 -150 0
-127 -151 0
-128 -152 0
-121 -177 0
-122 -178 0
-123 -179 0
-124 -180 0
-125 -181 0
-126 -182 0
-127 -183 0
-128 -184 0
-129 -201 0
-130 -202 0
-131 -203 0
-132 -204 0
-133 -205 0
-134 -206 0
-135 -207 0
-136 -208 0
-129 -169 0
-130 -170 0
-131 -171 0
-132 -172 0
-133 -173 0
-134 -174 0
-135 -175 0
-136 -176 0
-129 -137 0
-130 -138 0
-131 -139 0
-132 -140 0
-133 -141 0
-134 -142 0
-135 -143 0
-136 -144 0
-129 -209 0
-130 -210 0
-131 -211 0
-132 -212 0
-133 -213 0
-134 -214 0
-135 -215 0
-136 -216 0
-129 -161 0
-130 -162 0
-131 -163 0
-132 -164 0
-133 -165 0
-134 -166 0
-135 -167 0
-136 -168 0
-129 -153 0
-130 -154 0
-131 -155 0
-132 -156 0
-133 -157 0
-134 -158 0
-135 -159 0
-136 -160 0
-129 -177 0
-130 -178 0
-131 -179 0
-132 -180 0
-133 -181 0
-134 -182 0
-135 -183 0
-136 -184 0
-137 -209 0
-138 -210 0
-139 -211 0
-140 -212 0
-141 -213 0
-142 -214 0
-143 -215 0
-144 -216 0
-137 -145 0
-138 -146 0
-139 -147 0
-140 -148 0
-141 -149 0
-142 -150 0
-143 -151 0
-144 -152 0
-137 -177 0
-138 -178 0
-139 -179 0
-140 -180 0
-141 -181 0
-142 -182 0
-143 -183 0
-144 -184 0
-145 -185 0
-146 -186 0
-147 -187 0
-148 -188 0
-149 -189 0
-150 -190 0
-151 -191 0
-152 -192 0
-145 -217 0
-146 -218 0
-147 -219 0
-148 -220 0
-149 -221 0
-150 -222 0
-151 -223 0
-152 -224 0
-145 -209 0
-146 -210 0
-147 -211 0
-148 -212 0
-149 -213 0
-150 -214 0
-151 -215 0
-152 -216 0
-145 -161 0
-146 -162 0
-147 -163 0
-148 -164 0
-149 -165 0
-150 -166 0
-151 -167 0
-152 -168 0
-145 -153 0
-146 -154 0
-147 -155 0
-148 -156 0
-149 -157 0
-150 -158 0
-151 -159 0
-152 -160 0
-145 -177 0
-146 -178 0
-147 -179 0
-148 -180 0
-149 -181 0
-150 -182 0
-151 -183 0
-152 -184 0
-153 -201 0
-154 -202 0
-155 -203 0
-156 -204 0
-157 -205 0
-158 -206 0
-159 -207 0
-160 -208 0
-153 -217 0
-154 -218 0
-155 -219 0
-156 -220 0
-157 -221 0
-158 -222 0
-159 -223 0
-160 -224 0
-153 -209 0
-154 -210 0
-155 -211 0
-156 -212 0
-157 -213 0
-158 -214 0
-159 -215 0
-160 -216 0
-153 -161 0
-154 -162 0
-155 -163 0
-156 -164 0
-157 -165 0
-158 -166 0
-159 -167 0
-160 -168 0
-153 -177 0
-154 -178 0
-155 -179 0
-156 -180 0
-157 -181 0
-158 -182 0
-159 -183 0
-160 -184 0
-161 -201 0
-162 -202 0
-163 -203 0
-164 -204 0
-165 -205 0
-166 -206 0
-167 -207 0
-168 -208 0
-161 -169 0
-162 -170 0
-163 -171 0
-164 -172 0
-165 -173 0
-166 -174 0
-167 -175 0
-168 -176 0
-161 -209 0
-162 -210 0
-163 -211 0
-164 -212 0
-165 -213 0
-166 -214 0
-167 -215 0
-168 -216 0
-161 -193 0
-162 -194 0
-163 -195 0
-164 -196 0
-165 -197 0
-166 -198 0
-167 -199 0
-168 -200 0
-161 -177 0
-162 -178 0
-163 -179 0
-164 -180 0
-165 -181 0
-166 -182 0
-167 -183 0
-168 -184 0
-169 -201 0
-170 -202 0
-171 -203 0
-172 -204 0
-173 -205 0
-174 -206 0
-175 -207 0
-176 -208 0
-169 -193 0
-170 -194 0
-171 -195 0
-172 -196 0
-173 -197 0
-174 -198 0
-175 -199 0
-176 -200 0
-169 -185 0
-170 -186 0
-171 -187 0
-172 -188 0
-173 -189 0
-174 -190 0
-175 -191 0
-176 -192 0
-177 -217 0
-178 -218 0
-179 -219 0
-180 -220 0
-181 -221 0
-182 -222 0
-183 -223 0
-184 -224 0
-177 -209 0
-178 -210 0
-179 -211 0
-180 -212 0
-181 -213 0
-182 -214 0
-183 -215 0
-184 -216 0
-185 -217 0
-186 -218 0
-187 -219 0
-188 -220 0
-189 -221 0
-190 -222 0
-191 -223 0
-192 -224 0
-185 -193 0
-186 -194 0
-187 -195 0
-188 -196 0
-189 -197 0
-190 -198 0
-191 -199 0
-192 -200 0
-193 -201 0
-194 -202 0
-195 -203 0
-196 -204 0
-197 -205 0
-198 -206 0
-199 -207 0
-200 -208 0
-193 -217 0
-194 -218 0
-195 -219 0
-196 -220 0
-197 -221 0
-198 -222 0
-199 -223 0
-200 -224 0
1 2 3 4 5 6 7 8 0
9 10 11 12 13 14 15 16 0
17 18 19 20 21 22 23 24 0
25 26 27 28 29 30 31 32 0
33 34 35 36 37 38 39 40 0
41 42 43 44 45 46 47 48 0
49 50 51 52 53 54 55 56 0
57 58 59 60 61 62 63 64 0
65 66 67 68 69 70 71 72 0
73 74 75 76 77 78 79 80 0
81 82 83 84 85 86 87 88 0
89 90 91 92 93 94 95 96 0
97 98 99 100 101 102 103 104 0
105 106 107 108 109 110 111 112 0
113 114 115 116 117 118 119 120 0
121 122 123 124 125 126 127 128 0
129 130 131 132 133 134 135 136 0
137 138 139 140 141 142 143 144 0
145 146 147 148 149 150 151 152 0
153 154 155 156 157 158 159 160 0
161 162 163 164 165 166 167 168 0
169 170 171 172 173 174 175 176 0
177 178 179 180 181 182 183 184 0
185 186 187 188 189 190 191 192 0
193 194 195 196 197 198 199 200 0
201 202 203 204 205 206 207 208 0
209 210 211 212 213 214 215 216 0
217 218 219 220 221 222 223 224 0
